NAME          COPTPROB
OBJSENSE
  MIN
ROWS
 N  __OBJ___
 L  C2      
 L  C11     
 L  C12     
 L  C22     
 L  C36     
 L  C39     
 L  C57     
 L  C76     
 L  C100    
 L  C157    
 L  C176    
 L  C186    
COLUMNS
    MARKER    'MARKER'                 'INTORG'
    x75       __OBJ___  286
    x75       C36       -1
    x83       __OBJ___  324
    x83       C2        -1
    x83       C76       -1
    x105      __OBJ___  120
    x105      C22       -1
    x105      C57       -1
    x111      __OBJ___  390
    x111      C2        -1
    x111      C12       -1
    x224      __OBJ___  367
    x224      C11       -1
    x224      C57       -1
    x264      __OBJ___  14
    x264      C39       -1
    x264      C176      -1
    x391      __OBJ___  186
    x391      C157      -1
    x391      C186      -1
    x442      __OBJ___  367
    x442      C76       -1
    x442      C100      -1
    x466      __OBJ___  267
    x466      C11       -1
    x466      C186      -1
    x482      __OBJ___  599
    x482      C2        -1
    x482      C36       -1
    x579      __OBJ___  103
    x579      C22       -1
    x579      C100      -1
    x636      __OBJ___  125
    x636      C12       -1
    x636      C39       -1
    x757      __OBJ___  47
    x757      C100      -1
    x757      C176      -1
    x782      __OBJ___  432
    x782      C36       -1
    x782      C157      -1
    MARKER    'MARKER'                 'INTEND'
RHS
    RHS       __OBJ___  -15618
    RHS       C2        -1
    RHS       C11       -1
    RHS       C12       -1
    RHS       C22       -1
    RHS       C36       -1
    RHS       C39       -1
    RHS       C57       -1
    RHS       C76       -1
    RHS       C100      -1
    RHS       C157      -1
    RHS       C176      -1
    RHS       C186      -1
BOUNDS
 UP BOUND     x75       1
 UP BOUND     x83       1
 UP BOUND     x105      1
 UP BOUND     x111      1
 UP BOUND     x224      1
 UP BOUND     x264      1
 UP BOUND     x391      1
 UP BOUND     x442      1
 UP BOUND     x466      1
 UP BOUND     x482      1
 UP BOUND     x579      1
 UP BOUND     x636      1
 UP BOUND     x757      1
 UP BOUND     x782      1
ENDATA
